s td 76 17 116
b 1 41 49 68 105
b 2 9 41 68 87
b 3 36 41 49 68
b 4 41 58 68 76
b 5 27 41 68 86
b 6 41 50 68 98
b 7 6 8 11 37 44
b 8 1 6 29 33 46 90
b 9 1 6 33 90 97
b 10 6 33 34 90 97
b 11 5 6 34 75 90 97 103
b 12 5 6 11 34 37 44 75 97 103
b 13 5 11 12 34 37 44 75 85 97 102 103
b 14 13 31 41 51 60
b 15 17 18 61 68 84
b 16 11 32 44 75 85 115
b 17 5 11 12 30 38 85
b 18 5 12 40 44 75 96
b 19 5 11 12 67 85 92
b 20 11 44 75 85 108 112
b 21 2 24 42 57 63 64 65 70 71 77 78 82 99 107 112 115
b 22 19 24 42 57 63 64 65 70 71 77 78 82 99 107 112 115
b 23 7 19 24 42 57 63 64 65 71 77 78 82 99 107 112 115
b 24 4 7 19 24 42 57 63 64 71 74 77 78 82 99 107 112 115
b 25 4 7 19 20 24 42 57 59 63 64 71 74 77 78 82 99 107
b 26 4 20 24 57 59 63 71 74 78 82 106 107
b 27 3 20 24 57 59 63 71 74 78 106 107
b 28 4 7 19 24 42 63 64 74 77 92 99 107 112 115
b 29 4 7 19 24 42 63 64 74 77 81 92 107 112 115
b 30 4 7 19 24 42 55 63 74 77 81 92 107 112 115
b 31 4 7 24 42 52 55 63 74 77 81 92 107 112 115
b 32 4 7 30 42 52 55 74 77 81 92 112 115
b 33 4 7 22 30 42 43 52 54 55 74 81 92 112 115
b 34 4 7 10 22 30 39 42 43 45 47 52 54 55 81 92 112 115
b 35 7 10 22 30 39 42 43 45 47 54 55 81 92 97 112 115
b 36 10 22 30 39 42 43 45 47 54 55 81 92 96 97 112 115
b 37 10 14 30 39 43 45 47 55 81 92 96 97 112 115
b 38 10 11 14 30 39 44 55 75 81 85 92 96 97 112 115
b 39 5 10 11 12 14 30 39 44 55 75 81 85 92 96 97
b 40 5 10 11 12 14 39 44 75 85 97 103
b 41 5 10 11 12 39 44 75 85 97 102 103
b 42 5 11 12 37 39 44 75 85 97 102 103
b 43 7 22 28 45 47 54 97
b 44 4 10 21 22 30 39 43 45 47 52 53 54 55 81 92 112 115
b 45 4 10 21 22 39 43 45 47 52 53 54 79
b 46 4 10 21 22 43 45 47 53 54 79 109
b 47 2 42 57 63 64 65 66 70 71 77 78 82 99 107 112 115
b 48 2 16 42 57 63 64 65 66 70 71 77 78 82 99 107 115
b 49 2 16 26 42 57 64 65 66 70 73 77 82 88 94 99 110
b 50 2 16 26 42 57 64 65 66 70 73 77 82 88 94 110 116
b 51 2 16 26 42 57 64 65 66 70 73 77 80 88 94 110 116
b 52 2 16 26 42 57 62 65 66 70 73 77 80 88 94 110 116
b 53 2 16 26 57 62 65 66 70 73 77 80 88 91 94 100 110 116
b 54 16 26 62 65 66 70 72 73 77 80 88 91 94 100 110 116
b 55 16 26 31 48 62 65 66 70 72 80 84 88 91 100 110 116
b 56 13 15 16 18 31 48 62 65 66 68 70 72 80 84 91 100 110
b 57 13 15 16 18 31 35 48 51 66 68 70 72 80 84 91 100 110
b 58 13 15 17 18 31 35 48 51 68 84 91
b 59 13 15 16 18 31 35 41 48 51 66 68 70 72 80 84 110
b 60 13 15 18 27 41 48 51 68 70 84
b 61 15 35 36 41 48 68
b 62 15 16 18 41 48 50 51 68
b 63 13 15 18 41 48 51 68 76 80 84
b 64 15 18 41 48 51 66 68 87
b 65 13 41 48 51 72 84 101
b 66 13 15 18 23 65 68 84
b 67 13 15 18 62 68 69 84
b 68 26 31 48 84 88 104 116
b 69 2 16 26 56 57 62 65 66 70 73 80 83 88 91 94 100 116
b 70 2 26 56 57 73 83 88 91 94 100 114 116
b 71 26 56 57 73 83 88 89 91 94 114 116
b 72 26 73 88 94 99 110 111
b 73 16 63 71 78 93 107 115
b 74 25 63 66 71 78 107 112
b 75 5 11 12 44 55 75 85 95
b 76 5 11 12 44 75 81 85 113
1 3
2 64
3 61
4 63
5 60
6 62
7 12
8 9
9 10
10 11
11 12
12 13
13 42
14 59
15 58
16 38
17 39
18 39
19 39
20 38
21 22
21 47
22 23
23 24
24 25
24 28
25 26
26 27
28 29
29 30
30 31
31 32
32 33
33 34
34 35
34 44
35 36
35 43
36 37
37 38
38 39
39 75
39 76
39 40
40 41
41 42
44 45
45 46
47 48
47 74
48 49
48 73
49 50
49 72
50 51
51 52
52 53
53 54
53 69
54 55
55 56
55 68
56 57
56 66
56 67
57 58
57 59
59 60
59 61
59 62
59 63
59 64
59 65
69 70
70 71
